(set-option :print-success false)
(set-logic QF_UF)
(declare-sort x12 0)
(declare-sort x32 0)
(declare-fun x26 () x32)
(declare-fun x117 (x32 x32) x32)
(declare-fun x11 (x32 x32) x32)
(declare-fun x65 () x32)
(declare-fun x44 () x32)
(declare-fun x86 () x32)
(declare-fun x13 () x32)
(assert (or (or (or (and (not (= x26 (x11 x44 (x11 x26 x44)))) (and (not (= x26 (x11 x65 (x11 x26 x65)))) (and (and (not (= x26 (x11 x13 (x11 x26 x13)))) (not (= x26 (x11 x86 (x11 x26 x86))))) (not (= x26 (x11 x26 (x11 x26 x26))))))) (or (and (and (and (not (= (x11 x26 (x11 x13 x26)) x13)) (and (not (= x13 (x11 x13 (x11 x13 x13)))) (not (= x13 (x11 x86 (x11 x13 x86)))))) (not (= (x11 x65 (x11 x13 x65)) x13))) (not (= (x11 x44 (x11 x13 x44)) x13))) (and (and (and (and (not (= x86 (x11 x13 (x11 x86 x13)))) (not (= x86 (x11 x86 (x11 x86 x86))))) (not (= x86 (x11 x26 (x11 x86 x26))))) (not (= x86 (x11 x65 (x11 x86 x65))))) (not (= x86 (x11 x44 (x11 x86 x44))))))) (and (not (= (x11 x44 (x11 x65 x44)) x65)) (and (not (= x65 (x11 x65 (x11 x65 x65)))) (and (and (not (= (x11 x13 (x11 x65 x13)) x65)) (not (= x65 (x11 x86 (x11 x65 x86))))) (not (= (x11 x26 (x11 x65 x26)) x65)))))) (and (and (and (not (= (x11 x26 (x11 x44 x26)) x44)) (and (not (= x44 (x11 x13 (x11 x44 x13)))) (not (= (x11 x86 (x11 x44 x86)) x44)))) (not (= (x11 x65 (x11 x44 x65)) x44))) (not (= (x11 x44 (x11 x44 x44)) x44)))))
(assert (or (or (and (and (and (and (= x13 (x11 x65 (x11 x65 x13))) (= (x11 x65 (x11 x65 x86)) x86)) (= (x11 x65 (x11 x65 x26)) x26)) (= x65 (x11 x65 (x11 x65 x65)))) (= (x11 x65 (x11 x65 x44)) x44)) (or (and (= x44 (x11 x26 (x11 x26 x44))) (and (and (and (= x86 (x11 x26 (x11 x26 x86))) (= (x11 x26 (x11 x26 x13)) x13)) (= x26 (x11 x26 (x11 x26 x26)))) (= (x11 x26 (x11 x26 x65)) x65))) (or (and (and (and (= (x11 x13 (x11 x13 x26)) x26) (and (= (x11 x13 (x11 x13 x13)) x13) (= x86 (x11 x13 (x11 x13 x86))))) (= x65 (x11 x13 (x11 x13 x65)))) (= (x11 x13 (x11 x13 x44)) x44)) (and (= (x11 x86 (x11 x86 x44)) x44) (and (= x65 (x11 x86 (x11 x86 x65))) (and (and (= (x11 x86 (x11 x86 x13)) x13) (= (x11 x86 (x11 x86 x86)) x86)) (= (x11 x86 (x11 x86 x26)) x26))))))) (and (and (and (= x26 (x11 x44 (x11 x44 x26))) (and (= (x11 x44 (x11 x44 x13)) x13) (= x86 (x11 x44 (x11 x44 x86))))) (= x65 (x11 x44 (x11 x44 x65)))) (= x44 (x11 x44 (x11 x44 x44))))))
(assert (not (and (and (= (x11 x44 x65) x13) (and (= x26 (x11 x44 x26)) (and (and (= (x11 x44 x86) x65) (and (and (= x86 (x11 x65 x65)) (and (and (and (and (and (and (= (x11 x26 x26) x86) (and (= (x11 x26 x13) x65) (and (and (= (x11 x13 x44) x26) (and (= x65 (x11 x13 x65)) (and (= x44 (x11 x13 x26)) (and (= (x11 x13 x13) x13) (and (= (x11 x13 x86) x86) (and (and (and (= x13 (x11 x86 x26)) (and (= (x11 x86 x86) x26) (= x86 (x11 x86 x13)))) (= (x11 x86 x65) x44)) (= x65 (x11 x86 x44)))))))) (= (x11 x26 x86) x13)))) (= (x11 x26 x65) x26)) (= (x11 x26 x44) x44)) (= (x11 x65 x86) x44)) (= x26 (x11 x65 x13))) (= x65 (x11 x65 x26)))) (= x13 (x11 x65 x44)))) (= x44 (x11 x44 x13))))) (= x86 (x11 x44 x44)))))
(assert (let ((x109 (x11 x13 x44)) (x151 (x11 x26 x44)) (x153 (x11 x26 x26)) (x147 (x11 x65 x86)) (x40 (x11 x26 x13)) (x53 (x11 x44 x13)) (x82 (x11 x86 x13)) (x63 (x11 x44 x26)) (x103 (x11 x65 x13)) (x141 (x11 x13 x13)) (x81 (x11 x44 x44)) (x15 (x11 x44 x65)) (x16 (x11 x86 x26)) (x76 (x11 x86 x86)) (x135 (x11 x13 x65)) (x112 (x11 x13 x86)) (x146 (x11 x26 x65)) (x38 (x11 x13 x26)) (x72 (x11 x65 x26)) (x30 (x11 x44 x86)) (x36 (x11 x26 x86)) (x47 (x11 x65 x44)) (x98 (x11 x86 x44)) (x66 (x11 x65 x65)) (x125 (x11 x86 x65))) (and (and (and (and (or (= x44 (x11 x53 x53)) (or (= x65 (x11 x103 x103)) (or (or (= (x11 x82 x82) x86) (= x13 (x11 x141 x141))) (= (x11 x40 x40) x26)))) (or (or (or (= x26 (x11 x36 x36)) (or (= x13 (x11 x112 x112)) (= x86 (x11 x76 x76)))) (= x65 (x11 x147 x147))) (= x44 (x11 x30 x30)))) (or (or (= x65 (x11 x72 x72)) (or (= x26 (x11 x153 x153)) (or (= (x11 x38 x38) x13) (= (x11 x16 x16) x86)))) (= (x11 x63 x63) x44))) (or (= (x11 x15 x15) x44) (or (or (or (= (x11 x135 x135) x13) (= (x11 x125 x125) x86)) (= (x11 x146 x146) x26)) (= (x11 x66 x66) x65)))) (or (= x44 (x11 x81 x81)) (or (= x65 (x11 x47 x47)) (or (or (= x86 (x11 x98 x98)) (= (x11 x109 x109) x13)) (= x26 (x11 x151 x151))))))))
(assert (let ((x109 (x11 x13 x44)) (x17 (x11 x44 x13)) (x74 (x11 x44 x65)) (x139 (x11 x44 x44)) (x30 (x11 x86 x65)) (x82 (x11 x86 x44)) (x80 (x11 x26 x26)) (x103 (x11 x26 x86)) (x36 (x11 x86 x13)) (x15 (x11 x13 x26)) (x112 (x11 x86 x86)) (x98 (x11 x13 x65)) (x147 (x11 x86 x26)) (x53 (x11 x65 x86)) (x105 (x11 x65 x65)) (x50 (x11 x65 x44)) (x106 (x11 x65 x26)) (x91 (x11 x44 x26)) (x67 (x11 x26 x44)) (x40 (x11 x13 x86)) (x16 (x11 x44 x86)) (x35 (x11 x65 x13)) (x66 (x11 x13 x13)) (x126 (x11 x26 x65)) (x81 (x11 x26 x13))) (let ((x6 (= x65 x66)) (x85 (= x44 x126)) (x7 (= x65 x80)) (x29 (= x44 x36)) (x125 (= x36 x86)) (x28 (= x16 x44)) (x114 (= x109 x26)) (x143 (= x86 x15)) (x116 (= x103 x26)) (x23 (= x35 x86)) (x88 (= x109 x65)) (x100 (= x13 x139)) (x2 (= x86 x50)) (x128 (= x67 x26)) (x155 (= x53 x13)) (x68 (= x65 x15)) (x10 (= x65 x126)) (x1 (= x65 x91)) (x157 (= x44 x105)) (x39 (= x26 x50)) (x152 (= x13 x105)) (x46 (= x13 x80)) (x97 (= x44 x98)) (x93 (= x65 x67)) (x8 (= x15 x13)) (x158 (= x126 x13)) (x94 (= x13 x74)) (x71 (= x13 x109)) (x64 (= x98 x26)) (x47 (= x66 x13)) (x120 (= x30 x86)) (x95 (= x67 x86)) (x84 (= x26 x66)) (x96 (= x98 x65)) (x124 (= x35 x65)) (x110 (= x82 x65)) (x144 (= x81 x44)) (x150 (= x86 x106)) (x56 (= x147 x86)) (x27 (= x13 x91)) (x70 (= x126 x86)) (x79 (= x50 x13)) (x76 (= x86 x112)) (x22 (= x17 x13)) (x101 (= x50 x44)) (x130 (= x82 x13)) (x122 (= x86 x139)) (x104 (= x86 x103)) (x34 (= x65 x81)) (x154 (= x17 x44)) (x132 (= x15 x44)) (x113 (= x13 x67)) (x127 (= x26 x147)) (x73 (= x80 x44)) (x107 (= x26 x106)) (x9 (= x105 x26)) (x43 (= x65 x105)) (x63 (= x40 x86)) (x134 (= x65 x30)) (x51 (= x126 x26)) (x135 (= x66 x86)) (x25 (= x91 x86)) (x31 (= x15 x26)) (x18 (= x16 x13)) (x45 (= x81 x86)) (x49 (= x36 x26)) (x92 (= x86 x105)) (x111 (= x35 x26)) (x38 (= x112 x26)) (x133 (= x109 x44)) (x99 (= x147 x44)) (x55 (= x65 x139)) (x153 (= x65 x112)) (x118 (= x30 x26)) (x20 (= x86 x16)) (x62 (= x53 x65)) (x119 (= x26 x17)) (x37 (= x74 x86)) (x151 (= x13 x36)) (x87 (= x86 x98)) (x19 (= x35 x13)) (x33 (= x65 x106)) (x159 (= x26 x40)) (x69 (= x26 x53)) (x140 (= x17 x65)) (x138 (= x106 x44)) (x72 (= x44 x112)) (x42 (= x86 x17)) (x4 (= x44 x53)) (x121 (= x74 x26)) (x59 (= x44 x67)) (x58 (= x65 x16)) (x60 (= x13 x81)) (x41 (= x26 x82)) (x48 (= x103 x13)) (x78 (= x80 x86)) (x14 (= x82 x44)) (x90 (= x147 x13)) (x136 (= x103 x65)) (x141 (= x13 x112)) (x21 (= x109 x86)) (x54 (= x147 x65)) (x129 (= x44 x40)) (x137 (= x86 x82)) (x52 (= x80 x26)) (x83 (= x44 x35)) (x77 (= x13 x106)) (x149 (= x30 x13)) (x3 (= x74 x65)) (x24 (= x44 x139)) (x61 (= x44 x74)) (x57 (= x139 x26)) (x131 (= x65 x40)) (x75 (= x26 x16)) (x123 (= x26 x91)) (x102 (= x65 x50)) (x146 (= x13 x40)) (x148 (= x81 x26)) (x145 (= x66 x44)) (x5 (= x44 x91)) (x156 (= x103 x44)) (x115 (= x86 x53)) (x142 (= x30 x44)) (x108 (= x98 x13)) (x89 (= x36 x65))) (and (and (and (and (and (and (and (or (or (or x136 (or x131 x153)) x62) x58) (or (or (or x54 (or x89 x153)) x134) x110)) (and (and (or (or x118 (or (or x49 x38) x127)) x41) (or (or x69 (or (or x38 x159) x116)) x75)) (and (and (or x130 (or x149 (or (or x141 x151) x90))) (or (or (or (or x141 x146) x48) x155) x18)) (and (or (or x115 (or x104 (or x63 x76))) x20) (or (or x120 (or (or x125 x76) x56)) x137))))) (and (or (or (or x99 (or x72 x29)) x142) x14) (or (or x4 (or (or x129 x72) x156)) x28))) (and (and (or (or x97 (or x132 (or x145 x129))) x133) (or (or (or (or x29 x145) x144) x83) x154)) (and (and (and (or (or x111 (or (or x84 x49) x148)) x119) (or (or (or (or x84 x159) x31) x64) x114)) (and (and (or (or (or x45 (or x125 x135)) x23) x42) (or (or (or x143 (or x63 x135)) x87) x21)) (and (or x71 (or x108 (or x8 (or x47 x146)))) (or x22 (or (or x60 (or x47 x151)) x19))))) (and (or x88 (or x96 (or (or x131 x6) x68))) (or x140 (or (or (or x6 x89) x34) x124)))))) (and (and (or (or (or x73 (or x132 x99)) x138) x5) (or (or x85 (or (or x144 x156) x73)) x59)) (and (and (and (and (or (or x77 (or (or x90 x8) x46)) x27) (or (or (or x46 (or x48 x60)) x158) x113)) (and (or x25 (or (or (or x56 x143) x78) x150)) (or (or (or (or x45 x104) x78) x70) x95))) (and (or x128 (or (or (or x148 x116) x52) x51)) (or (or x107 (or (or x127 x31) x52)) x123))) (and (or (or (or (or x54 x68) x7) x33) x1) (or (or (or x7 (or x136 x34)) x10) x93))))) (and (and (or (or (or x138 (or x83 x4)) x157) x101) (or x61 (or x157 (or (or x142 x97) x85)))) (and (and (and (or x39 (or x9 (or x107 (or x111 x69)))) (or (or (or x51 (or x118 x64)) x9) x121)) (and (and (or x79 (or x152 (or (or x155 x19) x77))) (or (or x152 (or x158 (or x108 x149))) x94)) (and (or x2 (or x92 (or x150 (or x115 x23)))) (or x37 (or (or x70 (or x120 x87)) x92))))) (and (or (or (or x33 (or x124 x62)) x43) x102) (or x3 (or x43 (or x10 (or x134 x96)))))))) (and (and (or x24 (or (or (or x133 x14) x59) x101)) (or x24 (or x61 (or (or x28 x154) x5)))) (and (and (or (or (or (or x58 x140) x1) x3) x55) (or x55 (or x102 (or (or x110 x88) x93)))) (and (and (or x57 (or (or (or x114 x41) x128) x39)) (or (or (or (or x119 x75) x123) x121) x57)) (and (and (or x122 (or (or (or x137 x21) x95) x2)) (or x122 (or (or x25 (or x42 x20)) x37))) (and (or (or (or (or x71 x130) x113) x79) x100) (or (or x94 (or x27 (or x18 x22))) x100))))))))))
(assert (let ((x81 (x11 x44 x44)) (x30 (x11 x86 x44)) (x82 (x11 x13 x86)) (x16 (x11 x26 x86)) (x125 (x11 x65 x86)) (x109 (x11 x44 x13)) (x66 (x11 x65 x65)) (x103 (x11 x13 x65)) (x98 (x11 x44 x86)) (x141 (x11 x13 x13)) (x146 (x11 x65 x26)) (x76 (x11 x86 x86)) (x36 (x11 x86 x26)) (x47 (x11 x44 x65)) (x112 (x11 x86 x13)) (x53 (x11 x13 x44)) (x147 (x11 x86 x65)) (x72 (x11 x26 x65)) (x15 (x11 x65 x44)) (x63 (x11 x26 x44)) (x135 (x11 x65 x13)) (x40 (x11 x13 x26)) (x38 (x11 x26 x13)) (x153 (x11 x26 x26)) (x151 (x11 x44 x26))) (and (and (or (or (or (or (= (x11 x135 x135) x13) (= (x11 x125 x125) x86)) (= (x11 x146 x146) x26)) (= (x11 x66 x66) x65)) (= x44 (x11 x15 x15))) (and (or (= x44 (x11 x63 x63)) (or (or (or (= (x11 x16 x16) x86) (= x13 (x11 x38 x38))) (= (x11 x153 x153) x26)) (= x65 (x11 x72 x72)))) (and (or (= x44 (x11 x30 x30)) (or (or (or (= (x11 x76 x76) x86) (= (x11 x112 x112) x13)) (= (x11 x36 x36) x26)) (= (x11 x147 x147) x65))) (or (or (= x65 (x11 x103 x103)) (or (or (= x86 (x11 x82 x82)) (= x13 (x11 x141 x141))) (= (x11 x40 x40) x26))) (= (x11 x53 x53) x44))))) (or (= (x11 x81 x81) x44) (or (= (x11 x47 x47) x65) (or (= x26 (x11 x151 x151)) (or (= (x11 x98 x98) x86) (= (x11 x109 x109) x13))))))))
(assert (let ((x76 (x11 x86 x86)) (x38 (x11 x13 x26)) (x72 (x11 x65 x26)) (x81 (x11 x44 x44)) (x109 (x11 x13 x44)) (x66 (x11 x65 x65)) (x30 (x11 x44 x86)) (x16 (x11 x86 x26)) (x36 (x11 x26 x86)) (x15 (x11 x44 x65)) (x40 (x11 x26 x13)) (x63 (x11 x44 x26)) (x147 (x11 x65 x86)) (x53 (x11 x44 x13)) (x141 (x11 x13 x13)) (x125 (x11 x86 x65)) (x135 (x11 x13 x65)) (x98 (x11 x86 x44)) (x47 (x11 x65 x44)) (x146 (x11 x26 x65)) (x103 (x11 x65 x13)) (x82 (x11 x86 x13)) (x112 (x11 x13 x86)) (x151 (x11 x26 x44)) (x153 (x11 x26 x26))) (and (and (and (and (and (not (= x15 x63)) (and (not (= x81 x53)) (and (and (not (= x53 x63)) (and (and (not (= x30 x15)) (and (not (= x53 x30)) (not (= x63 x30)))) (not (= x81 x30)))) (not (= x15 x53))))) (not (= x81 x63))) (not (= x15 x81))) (and (and (not (= x47 x66)) (and (not (= x47 x72)) (and (and (not (= x103 x47)) (and (and (and (not (= x47 x147)) (and (and (not (= x147 x103)) (not (= x147 x72))) (not (= x66 x147)))) (not (= x72 x103))) (not (= x103 x66)))) (not (= x66 x72))))) (and (and (not (= x146 x151)) (and (and (not (= x153 x146)) (and (not (= x151 x40)) (and (not (= x40 x146)) (and (and (and (and (not (= x153 x36)) (not (= x36 x40))) (not (= x146 x36))) (not (= x36 x151))) (not (= x153 x40)))))) (not (= x153 x151)))) (and (and (not (= x98 x125)) (and (not (= x16 x98)) (and (not (= x125 x16)) (and (and (not (= x125 x82)) (and (not (= x82 x16)) (and (and (and (not (= x16 x76)) (not (= x76 x82))) (not (= x76 x125))) (not (= x98 x76))))) (not (= x98 x82)))))) (and (not (= x135 x109)) (and (and (not (= x135 x38)) (and (not (= x141 x109)) (and (not (= x141 x135)) (and (and (and (and (not (= x38 x112)) (not (= x141 x112))) (not (= x135 x112))) (not (= x109 x112))) (not (= x38 x141)))))) (not (= x38 x109)))))))) (and (and (and (not (= x81 x151)) (and (and (and (not (= x47 x109)) (and (not (= x151 x109)) (and (and (and (not (= x109 x98)) (not (= x151 x98))) (not (= x98 x47))) (not (= x98 x81))))) (not (= x81 x109))) (not (= x47 x151)))) (not (= x81 x47))) (and (and (and (not (= x63 x72)) (and (not (= x63 x153)) (and (and (not (= x38 x63)) (and (and (and (and (not (= x16 x72)) (and (not (= x38 x16)) (not (= x153 x16)))) (not (= x63 x16))) (not (= x38 x153))) (not (= x72 x38)))) (not (= x72 x153))))) (and (and (and (and (not (= x103 x40)) (and (and (and (not (= x40 x141)) (and (and (not (= x103 x82)) (and (not (= x40 x82)) (not (= x141 x82)))) (not (= x53 x82)))) (not (= x141 x103))) (not (= x141 x53)))) (not (= x53 x40))) (not (= x53 x103))) (and (and (and (and (not (= x112 x30)) (and (not (= x147 x112)) (and (and (not (= x30 x76)) (and (and (not (= x76 x112)) (not (= x76 x36))) (not (= x76 x147)))) (not (= x112 x36))))) (not (= x147 x36))) (not (= x36 x30))) (not (= x147 x30))))) (and (not (= x66 x15)) (and (and (not (= x66 x146)) (and (not (= x15 x135)) (and (and (not (= x146 x135)) (and (not (= x125 x15)) (and (not (= x125 x66)) (and (not (= x125 x146)) (not (= x125 x135)))))) (not (= x66 x135))))) (not (= x15 x146)))))))))
(assert (let ((x147 (x11 x65 x65)) (x30 (x11 x44 x44)) (x36 (x11 x26 x26)) (x112 (x11 x13 x13)) (x76 (x11 x86 x86))) (or (and (not (= x44 x30)) (and (not (= x147 x44)) (and (and (not (= x76 x44)) (not (= x44 x112))) (not (= x44 x36))))) (or (or (and (not (= x26 x30)) (and (and (and (not (= x26 x76)) (not (= x112 x26))) (not (= x26 x36))) (not (= x26 x147)))) (or (and (not (= x30 x13)) (and (and (not (= x36 x13)) (and (not (= x112 x13)) (not (= x13 x76)))) (not (= x147 x13)))) (and (and (and (not (= x86 x36)) (and (not (= x86 x76)) (not (= x112 x86)))) (not (= x147 x86))) (not (= x86 x30))))) (and (not (= x65 x30)) (and (not (= x147 x65)) (and (not (= x65 x36)) (and (not (= x76 x65)) (not (= x65 x112))))))))))
(assert (let ((x53 (= (x11 x44 x44) x44)) (x103 (= (x11 x65 x65) x65)) (x36 (= x13 (x11 x13 x13))) (x40 (= (x11 x26 x26) x26)) (x76 (= x86 (x11 x86 x86)))) (let ((x112 (not x76)) (x147 (not x36)) (x82 (not x103)) (x30 (not x40)) (x141 (not x53))) (or (or (or (and (= x65 (x11 x65 x44)) x141) (or (or (and (= (x11 x65 x26) x65) x30) (or (and (= (x11 x65 x13) x65) x147) (and (= (x11 x65 x86) x65) x112))) (and x82 x103))) (or (or (or (or (and x82 (= x86 (x11 x86 x65))) (or (and x30 (= (x11 x86 x26) x86)) (or (and x76 x112) (and x147 (= x86 (x11 x86 x13)))))) (and x141 (= (x11 x86 x44) x86))) (or (or (or (and (= x13 (x11 x13 x26)) x30) (or (and x147 x36) (and x112 (= x13 (x11 x13 x86))))) (and (= (x11 x13 x65) x13) x82)) (and x141 (= x13 (x11 x13 x44))))) (or (or (and x82 (= (x11 x26 x65) x26)) (or (and x40 x30) (or (and x147 (= (x11 x26 x13) x26)) (and x112 (= x26 (x11 x26 x86)))))) (and (= x26 (x11 x26 x44)) x141)))) (or (or (and (= (x11 x44 x65) x44) x82) (or (and x30 (= (x11 x44 x26) x44)) (or (and x112 (= (x11 x44 x86) x44)) (and (= x44 (x11 x44 x13)) x147)))) (and x53 x141))))))
(assert (or (or (and (and (not (= x65 (x11 (x11 x65 x65) x65))) (and (not (= (x11 (x11 x65 x26) x65) x26)) (and (not (= x13 (x11 (x11 x65 x13) x65))) (not (= x86 (x11 (x11 x65 x86) x65)))))) (not (= (x11 (x11 x65 x44) x65) x44))) (or (and (not (= x44 (x11 (x11 x26 x44) x26))) (and (not (= (x11 (x11 x26 x65) x26) x65)) (and (not (= (x11 (x11 x26 x26) x26) x26)) (and (not (= x13 (x11 (x11 x26 x13) x26))) (not (= (x11 (x11 x26 x86) x26) x86)))))) (or (and (and (and (not (= (x11 (x11 x13 x26) x13) x26)) (and (not (= x86 (x11 (x11 x13 x86) x13))) (not (= (x11 (x11 x13 x13) x13) x13)))) (not (= (x11 (x11 x13 x65) x13) x65))) (not (= (x11 (x11 x13 x44) x13) x44))) (and (not (= x44 (x11 (x11 x86 x44) x86))) (and (and (and (not (= (x11 (x11 x86 x13) x86) x13)) (not (= (x11 (x11 x86 x86) x86) x86))) (not (= x26 (x11 (x11 x86 x26) x86)))) (not (= x65 (x11 (x11 x86 x65) x86)))))))) (and (and (not (= (x11 (x11 x44 x65) x44) x65)) (and (not (= (x11 (x11 x44 x26) x44) x26)) (and (not (= (x11 (x11 x44 x13) x44) x13)) (not (= x86 (x11 (x11 x44 x86) x44)))))) (not (= (x11 (x11 x44 x44) x44) x44)))))
(assert (and (= (x11 x13 x26) x44) (and (and (= (x11 x86 x86) x26) (= x13 (x11 x86 x26))) (= (x11 x26 x13) x65))))
(assert (and (and (not (= x44 x26)) (and (and (not (= x13 x44)) (and (not (= x65 x13)) (and (not (= x26 x13)) (and (and (and (not (= x13 x86)) (not (= x86 x26))) (not (= x65 x86))) (not (= x86 x44)))))) (not (= x26 x65)))) (not (= x44 x65))))
(assert (let ((x103 (x11 x26 x26)) (x38 (x11 x65 x13)) (x125 (x11 x65 x65)) (x36 (x11 x86 x13)) (x153 (x11 x13 x65)) (x63 (x11 x26 x65)) (x82 (x11 x86 x26)) (x135 (x11 x44 x86)) (x47 (x11 x65 x44)) (x112 (x11 x13 x86)) (x53 (x11 x65 x86)) (x147 (x11 x13 x13)) (x81 (x11 x44 x44)) (x76 (x11 x86 x86)) (x16 (x11 x86 x65)) (x66 (x11 x44 x13)) (x15 (x11 x13 x44)) (x98 (x11 x44 x26)) (x146 (x11 x86 x44)) (x72 (x11 x65 x26)) (x30 (x11 x26 x86)) (x151 (x11 x44 x65)) (x109 (x11 x26 x44)) (x141 (x11 x26 x13)) (x40 (x11 x13 x26))) (or (or (or (or (and (and (and (= x40 x141) (and (= x147 x147) (= x36 x112))) (= x153 x38)) (= x66 x15)) (and (and (and (and (= x112 x36) (= x76 x76)) (= x30 x82)) (= x16 x53)) (= x146 x135))) (and (and (= x72 x63) (and (= x103 x103) (and (= x30 x82) (= x40 x141)))) (= x109 x98))) (and (and (and (and (= x16 x53) (= x38 x153)) (= x63 x72)) (= x125 x125)) (= x151 x47))) (and (and (= x47 x151) (and (= x98 x109) (and (= x135 x146) (= x15 x66)))) (= x81 x81)))))
(assert (let ((x29 (x11 x44 x86)) (x49 (x11 x13 x86)) (x31 (x11 x44 x26)) (x127 (x11 x26 x44)) (x106 (x11 x26 x26)) (x89 (x11 x86 x65)) (x78 (x11 x26 x13)) (x35 (x11 x86 x86)) (x84 (x11 x86 x26)) (x48 (x11 x13 x65)) (x156 (x11 x65 x65)) (x80 (x11 x13 x44)) (x131 (x11 x26 x86)) (x143 (x11 x13 x26)) (x129 (x11 x86 x44)) (x159 (x11 x86 x13)) (x6 (x11 x65 x86)) (x132 (x11 x44 x65)) (x116 (x11 x26 x65)) (x60 (x11 x65 x13)) (x45 (x11 x13 x13)) (x126 (x11 x44 x13)) (x99 (x11 x65 x44)) (x148 (x11 x65 x26)) (x155 (x11 x44 x44))) (let ((x149 (= x45 x26)) (x123 (= x35 x44)) (x66 (= x126 x86)) (x152 (= x26 x78)) (x93 (= x148 x44)) (x110 (= x60 x44)) (x41 (= x159 x44)) (x28 (= x44 x29)) (x33 (= x26 x129)) (x158 (= x84 x26)) (x50 (= x159 x26)) (x19 (= x13 x155)) (x91 (= x106 x13)) (x56 (= x45 x13)) (x62 (= x156 x26)) (x137 (= x65 x106)) (x141 (= x78 x86)) (x58 (= x143 x44)) (x21 (= x6 x65)) (x39 (= x44 x84)) (x61 (= x80 x44)) (x34 (= x13 x60)) (x79 (= x65 x127)) (x118 (= x60 x26)) (x24 (= x44 x155)) (x22 (= x65 x116)) (x55 (= x156 x44)) (x103 (= x86 x106)) (x134 (= x126 x26)) (x5 (= x126 x44)) (x100 (= x132 x65)) (x124 (= x26 x29)) (x53 (= x6 x86)) (x105 (= x49 x26)) (x73 (= x13 x29)) (x7 (= x116 x13)) (x71 (= x65 x80)) (x151 (= x132 x86)) (x94 (= x65 x29)) (x10 (= x31 x26)) (x121 (= x44 x49)) (x140 (= x44 x106)) (x51 (= x26 x148)) (x138 (= x26 x155)) (x1 (= x6 x44)) (x112 (= x49 x86)) (x136 (= x13 x89)) (x101 (= x99 x44)) (x154 (= x129 x44)) (x54 (= x48 x13)) (x69 (= x26 x106)) (x74 (= x143 x26)) (x67 (= x13 x131)) (x95 (= x89 x65)) (x87 (= x13 x127)) (x146 (= x129 x86)) (x68 (= x13 x148)) (x83 (= x26 x99)) (x42 (= x65 x84)) (x77 (= x26 x35)) (x96 (= x26 x80)) (x8 (= x13 x78)) (x122 (= x48 x65)) (x30 (= x86 x131)) (x82 (= x86 x84)) (x38 (= x60 x86)) (x37 (= x65 x143)) (x59 (= x132 x44)) (x135 (= x86 x29)) (x27 (= x65 x156)) (x92 (= x99 x13)) (x14 (= x44 x31)) (x3 (= x89 x44)) (x153 (= x48 x86)) (x115 (= x13 x129)) (x64 (= x48 x26)) (x90 (= x84 x13)) (x113 (= x65 x31)) (x9 (= x116 x26)) (x120 (= x31 x13)) (x36 (= x159 x86)) (x46 (= x143 x13)) (x109 (= x86 x127)) (x15 (= x80 x86)) (x150 (= x13 x80)) (x147 (= x45 x86)) (x43 (= x127 x26)) (x81 (= x86 x155)) (x76 (= x35 x86)) (x128 (= x131 x44)) (x85 (= x65 x159)) (x157 (= x45 x65)) (x139 (= x65 x129)) (x75 (= x99 x65)) (x97 (= x65 x49)) (x40 (= x86 x143)) (x145 (= x13 x49)) (x70 (= x132 x13)) (x88 (= x44 x48)) (x108 (= x131 x26)) (x17 (= x35 x13)) (x114 (= x44 x45)) (x47 (= x86 x99)) (x133 (= x44 x127)) (x63 (= x86 x116)) (x144 (= x156 x13)) (x98 (= x86 x31)) (x18 (= x65 x148)) (x104 (= x13 x159)) (x111 (= x6 x26)) (x102 (= x44 x116)) (x119 (= x65 x155)) (x142 (= x35 x65)) (x25 (= x65 x78)) (x57 (= x78 x44)) (x16 (= x89 x86)) (x125 (= x86 x156)) (x107 (= x26 x89)) (x72 (= x148 x86)) (x23 (= x13 x126)) (x20 (= x131 x65)) (x52 (= x13 x6)) (x4 (= x26 x132)) (x2 (= x60 x65)) (x130 (= x126 x65))) (and (and (or (or (and x119 x119) (or (or (or (and x130 x71) (and x94 x139)) (and x113 x79)) (and x100 x75))) (or (or (or (or (or (or (and x37 x25) (or (and x85 x97) (and x157 x157))) (and x2 x122)) (and x71 x130)) (or (or (or (or (and x142 x142) (and x97 x85)) (and x42 x20)) (and x21 x95)) (and x94 x139))) (or (or (or (and x137 x137) (or (and x42 x20) (and x37 x25))) (and x22 x18)) (and x113 x79))) (or (and x100 x75) (or (and x27 x27) (or (or (and x122 x2) (and x21 x95)) (and x18 x22)))))) (and (and (or (or (or (or (or (or (and x52 x136) (and x34 x54)) (and x68 x7)) (and x144 x144)) (and x70 x92)) (or (or (or (or (or (and x46 x8) (or (and x56 x56) (and x104 x145))) (and x34 x54)) (and x150 x23)) (or (or (or (or (and x145 x104) (and x17 x17)) (and x67 x90)) (and x136 x52)) (and x73 x115))) (or (or (and x68 x7) (or (or (and x67 x90) (and x46 x8)) (and x91 x91))) (and x87 x120)))) (or (and x19 x19) (or (and x70 x92) (or (or (and x23 x150) (and x73 x115)) (and x87 x120))))) (or (or (and x81 x81) (or (and x151 x47) (or (or (and x146 x135) (and x15 x66)) (and x109 x98)))) (or (or (and x151 x47) (or (and x125 x125) (or (and x72 x63) (or (and x38 x153) (and x16 x53))))) (or (or (or (and x146 x135) (or (or (and x82 x30) (or (and x112 x36) (and x76 x76))) (and x53 x16))) (or (and x15 x66) (or (and x153 x38) (or (or (and x112 x36) (and x147 x147)) (and x141 x40))))) (or (or (or (and x103 x103) (or (and x82 x30) (and x141 x40))) (and x63 x72)) (and x109 x98)))))) (or (or (or (and x4 x83) (or (and x62 x62) (or (or (and x118 x64) (and x107 x111)) (and x51 x9)))) (or (or (or (or (or (or (and x50 x105) (and x77 x77)) (and x158 x108)) (and x107 x111)) (and x124 x33)) (or (and x96 x134) (or (and x64 x118) (or (and x74 x152) (or (and x149 x149) (and x50 x105)))))) (or (and x43 x10) (or (or (or (and x74 x152) (and x108 x158)) (and x69 x69)) (and x9 x51))))) (or (and x138 x138) (or (or (or (and x33 x124) (and x134 x96)) (and x43 x10)) (and x4 x83)))))) (or (or (or (or (or (or (or (or (and x121 x41) (and x114 x114)) (and x57 x58)) (and x88 x110)) (and x5 x61)) (or (and x154 x28) (or (and x1 x3) (or (or (and x121 x41) (and x123 x123)) (and x39 x128))))) (or (and x14 x133) (or (and x102 x93) (or (or (and x39 x128) (and x57 x58)) (and x140 x140))))) (or (or (or (and x102 x93) (or (and x3 x1) (and x110 x88))) (and x55 x55)) (and x59 x101))) (or (and x24 x24) (or (and x59 x101) (or (or (and x28 x154) (and x61 x5)) (and x133 x14)))))))))
(assert (or (or (and (and (and (= x26 (x11 (x11 x26 x65) x65)) (and (= (x11 (x11 x13 x65) x65) x13) (= x86 (x11 (x11 x86 x65) x65)))) (= x65 (x11 (x11 x65 x65) x65))) (= x44 (x11 (x11 x44 x65) x65))) (or (and (= (x11 (x11 x44 x26) x26) x44) (and (and (= x26 (x11 (x11 x26 x26) x26)) (and (= x86 (x11 (x11 x86 x26) x26)) (= (x11 (x11 x13 x26) x26) x13))) (= (x11 (x11 x65 x26) x26) x65))) (or (and (= x44 (x11 (x11 x44 x86) x86)) (and (and (and (= x86 (x11 (x11 x86 x86) x86)) (= (x11 (x11 x13 x86) x86) x13)) (= x26 (x11 (x11 x26 x86) x86))) (= x65 (x11 (x11 x65 x86) x86)))) (and (and (= x65 (x11 (x11 x65 x13) x13)) (and (= (x11 (x11 x26 x13) x13) x26) (and (= x86 (x11 (x11 x86 x13) x13)) (= (x11 (x11 x13 x13) x13) x13)))) (= x44 (x11 (x11 x44 x13) x13)))))) (and (and (and (and (= (x11 (x11 x13 x44) x44) x13) (= (x11 (x11 x86 x44) x44) x86)) (= (x11 (x11 x26 x44) x44) x26)) (= x65 (x11 (x11 x65 x44) x44))) (= (x11 (x11 x44 x44) x44) x44))))
(assert (or (or (or (= (x11 x26 x26) x26) (or (= x13 (x11 x13 x13)) (= x86 (x11 x86 x86)))) (= x65 (x11 x65 x65))) (= (x11 x44 x44) x44)))
(assert (let ((x38 (x11 x26 x13)) (x146 (x11 x65 x26)) (x40 (x11 x13 x26)) (x135 (x11 x65 x13)) (x15 (x11 x65 x44)) (x30 (x11 x86 x44)) (x53 (x11 x13 x44)) (x153 (x11 x26 x26)) (x98 (x11 x44 x86)) (x16 (x11 x26 x86)) (x147 (x11 x86 x65)) (x72 (x11 x26 x65)) (x66 (x11 x65 x65)) (x109 (x11 x44 x13)) (x125 (x11 x65 x86)) (x47 (x11 x44 x65)) (x63 (x11 x26 x44)) (x76 (x11 x86 x86)) (x82 (x11 x13 x86)) (x103 (x11 x13 x65)) (x151 (x11 x44 x26)) (x36 (x11 x86 x26)) (x141 (x11 x13 x13)) (x112 (x11 x86 x13)) (x81 (x11 x44 x44))) (and (and (and (and (and (and (and (and (or (or (or (= x76 x26) (or (= x76 x13) (= x76 x86))) (= x65 x76)) (= x76 x44)) (or (= x112 x44) (or (= x65 x112) (or (= x112 x26) (or (= x112 x86) (= x13 x112)))))) (or (or (or (= x36 x26) (or (= x36 x13) (= x86 x36))) (= x65 x36)) (= x44 x36))) (or (or (or (= x26 x147) (or (= x147 x86) (= x147 x13))) (= x147 x65)) (= x147 x44))) (or (= x30 x44) (or (or (= x26 x30) (or (= x13 x30) (= x86 x30))) (= x30 x65)))) (and (or (= x53 x44) (or (= x65 x53) (or (or (= x53 x13) (= x53 x86)) (= x26 x53)))) (and (and (or (or (= x65 x40) (or (= x26 x40) (or (= x40 x13) (= x86 x40)))) (= x44 x40)) (and (or (= x44 x141) (or (= x65 x141) (or (= x26 x141) (or (= x141 x86) (= x141 x13))))) (or (= x82 x44) (or (= x82 x65) (or (= x82 x26) (or (= x82 x86) (= x13 x82))))))) (or (or (= x65 x103) (or (= x26 x103) (or (= x13 x103) (= x86 x103)))) (= x103 x44))))) (and (or (or (or (= x26 x63) (or (= x86 x63) (= x63 x13))) (= x63 x65)) (= x44 x63)) (and (or (= x72 x44) (or (= x65 x72) (or (= x72 x26) (or (= x13 x72) (= x86 x72))))) (and (or (or (= x65 x153) (or (or (= x153 x13) (= x86 x153)) (= x153 x26))) (= x153 x44)) (and (or (or (or (or (= x38 x13) (= x38 x86)) (= x26 x38)) (= x38 x65)) (= x44 x38)) (or (= x44 x16) (or (or (= x16 x26) (or (= x13 x16) (= x16 x86))) (= x65 x16)))))))) (and (and (and (and (or (or (= x65 x135) (or (= x26 x135) (or (= x135 x86) (= x13 x135)))) (= x135 x44)) (or (or (= x65 x125) (or (= x125 x26) (or (= x125 x86) (= x125 x13)))) (= x44 x125))) (or (= x146 x44) (or (= x146 x65) (or (or (= x146 x13) (= x86 x146)) (= x26 x146))))) (or (= x66 x44) (or (or (or (= x66 x13) (= x66 x86)) (= x26 x66)) (= x66 x65)))) (or (= x15 x44) (or (or (= x26 x15) (or (= x15 x86) (= x13 x15))) (= x65 x15))))) (and (and (and (or (or (or (= x26 x151) (or (= x13 x151) (= x86 x151))) (= x65 x151)) (= x44 x151)) (and (or (or (= x65 x98) (or (= x98 x26) (or (= x98 x86) (= x98 x13)))) (= x44 x98)) (or (or (= x65 x109) (or (or (= x109 x86) (= x13 x109)) (= x26 x109))) (= x44 x109)))) (or (= x47 x44) (or (= x65 x47) (or (= x47 x26) (or (= x13 x47) (= x86 x47)))))) (or (= x81 x44) (or (or (or (= x13 x81) (= x81 x86)) (= x81 x26)) (= x65 x81)))))))
(assert (or (or (or (or (and (and (and (not (= x26 (x11 x86 (x11 x86 x26)))) (and (not (= (x11 x86 (x11 x86 x86)) x86)) (not (= (x11 x86 (x11 x86 x13)) x13)))) (not (= (x11 x86 (x11 x86 x65)) x65))) (not (= x44 (x11 x86 (x11 x86 x44))))) (and (and (not (= x65 (x11 x13 (x11 x13 x65)))) (and (and (not (= x86 (x11 x13 (x11 x13 x86)))) (not (= (x11 x13 (x11 x13 x13)) x13))) (not (= (x11 x13 (x11 x13 x26)) x26)))) (not (= x44 (x11 x13 (x11 x13 x44)))))) (and (and (and (not (= (x11 x26 (x11 x26 x26)) x26)) (and (not (= x13 (x11 x26 (x11 x26 x13)))) (not (= x86 (x11 x26 (x11 x26 x86)))))) (not (= x65 (x11 x26 (x11 x26 x65))))) (not (= x44 (x11 x26 (x11 x26 x44)))))) (and (and (not (= (x11 x65 (x11 x65 x65)) x65)) (and (and (not (= x13 (x11 x65 (x11 x65 x13)))) (not (= (x11 x65 (x11 x65 x86)) x86))) (not (= x26 (x11 x65 (x11 x65 x26)))))) (not (= x44 (x11 x65 (x11 x65 x44)))))) (and (and (and (not (= (x11 x44 (x11 x44 x26)) x26)) (and (not (= (x11 x44 (x11 x44 x86)) x86)) (not (= (x11 x44 (x11 x44 x13)) x13)))) (not (= x65 (x11 x44 (x11 x44 x65))))) (not (= (x11 x44 (x11 x44 x44)) x44)))))
(check-sat)
(exit)
